14 965
525 7 482 7 394 7 212 9 29 11 822 15 625 21
525 7 482 7 394 7 212 9 29 11 822 15 625 21
525 7 479 7 356 7 107 9 6 11 781 15 614 22
525 7 479 7 356 7 107 9 6 11 781 15 614 22
525 7 477 7 391 7 243 9 78 11 921 15
525 7 477 7 391 7 243 9 78 11 921 15
525 7 482 7 394 7 212 9 29 11 822 15 623 21
525 7 482 7 394 7 212 9 29 11 822 15 623 21
533 7
533 7
533 7
533 7
533 7
533 7
